% Auto-generated by scripts/generate_dzn.py
% problem_type   = polyominoes
% instance       = polyominoes_35
% source_json    = instances_json/0_low_blowup/polyominoes_35.json
% blowup         = 0.8805970149253731
% representation = DFA

mode = 0;

size = 4;
tiles = 6;
n_expressions = 6;
Q = 13;
S = 7;
q0 = [1, 1, 1, 1, 1, 1];
F = [{5}, {6}, {2}, {8}, {12}, {4}];
d_dfa = array3d(1..6, 1..13, 1..7, [
  % k = 1
    2, 1, 1, 1, 1, 1, 1,
    3, 4, 4, 4, 4, 4, 4,
    5, 13, 13, 13, 13, 13, 13,
    13, 6, 6, 6, 6, 6, 6,
    13, 5, 5, 5, 5, 5, 5,
    13, 7, 7, 7, 7, 7, 7,
    13, 8, 8, 8, 8, 8, 8,
    9, 13, 13, 13, 13, 13, 13,
    13, 10, 10, 10, 10, 10, 10,
    13, 11, 11, 11, 11, 11, 11,
    13, 12, 12, 12, 12, 12, 12,
    13, 3, 3, 3, 3, 3, 3,
    13, 13, 13, 13, 13, 13, 13,

  % k = 2
    1, 2, 1, 1, 1, 1, 1,
    3, 4, 3, 3, 3, 3, 3,
    5, 13, 5, 5, 5, 5, 5,
    13, 6, 13, 13, 13, 13, 13,
    7, 13, 7, 7, 7, 7, 7,
    6, 13, 6, 6, 6, 6, 6,
    8, 13, 8, 8, 8, 8, 8,
    13, 9, 13, 13, 13, 13, 13,
    10, 13, 10, 10, 10, 10, 10,
    11, 13, 11, 11, 11, 11, 11,
    12, 13, 12, 12, 12, 12, 12,
    4, 13, 4, 4, 4, 4, 4,
    13, 13, 13, 13, 13, 13, 13,

  % k = 3
    1, 1, 2, 1, 1, 1, 1,
    2, 2, 3, 2, 2, 2, 2,
    3, 3, 3, 3, 3, 3, 3,
    0, 0, 0, 0, 0, 0, 0,
    0, 0, 0, 0, 0, 0, 0,
    0, 0, 0, 0, 0, 0, 0,
    0, 0, 0, 0, 0, 0, 0,
    0, 0, 0, 0, 0, 0, 0,
    0, 0, 0, 0, 0, 0, 0,
    0, 0, 0, 0, 0, 0, 0,
    0, 0, 0, 0, 0, 0, 0,
    0, 0, 0, 0, 0, 0, 0,
    0, 0, 0, 0, 0, 0, 0,

  % k = 4
    1, 1, 1, 2, 1, 1, 1,
    9, 9, 9, 3, 9, 9, 9,
    4, 4, 4, 9, 4, 4, 4,
    5, 5, 5, 9, 5, 5, 5,
    6, 6, 6, 9, 6, 6, 6,
    9, 9, 9, 7, 9, 9, 9,
    9, 9, 9, 8, 9, 9, 9,
    8, 8, 8, 9, 8, 8, 8,
    9, 9, 9, 9, 9, 9, 9,
    0, 0, 0, 0, 0, 0, 0,
    0, 0, 0, 0, 0, 0, 0,
    0, 0, 0, 0, 0, 0, 0,
    0, 0, 0, 0, 0, 0, 0,

  % k = 5
    1, 1, 1, 1, 2, 1, 1,
    3, 3, 3, 3, 4, 3, 3,
    5, 5, 5, 5, 13, 5, 5,
    6, 6, 6, 6, 13, 6, 6,
    7, 7, 7, 7, 13, 7, 7,
    8, 8, 8, 8, 13, 8, 8,
    9, 9, 9, 9, 10, 9, 9,
    11, 11, 11, 11, 13, 11, 11,
    13, 13, 13, 13, 10, 13, 13,
    13, 13, 13, 13, 12, 13, 13,
    10, 10, 10, 10, 12, 10, 10,
    12, 12, 12, 12, 13, 12, 12,
    13, 13, 13, 13, 13, 13, 13,

  % k = 6
    1, 1, 1, 1, 1, 2, 1,
    3, 3, 3, 3, 3, 4, 3,
    5, 5, 5, 5, 5, 8, 5,
    4, 4, 4, 4, 4, 8, 4,
    6, 6, 6, 6, 6, 8, 6,
    7, 7, 7, 7, 7, 8, 7,
    8, 8, 8, 8, 8, 4, 8,
    8, 8, 8, 8, 8, 8, 8,
    0, 0, 0, 0, 0, 0, 0,
    0, 0, 0, 0, 0, 0, 0,
    0, 0, 0, 0, 0, 0, 0,
    0, 0, 0, 0, 0, 0, 0,
    0, 0, 0, 0, 0, 0, 0
]);
d_nfa = array3d(1..6, 1..13, 1..7, [
  % k = 1
    {}, {}, {}, {}, {}, {}, {},
    {}, {}, {}, {}, {}, {}, {},
    {}, {}, {}, {}, {}, {}, {},
    {}, {}, {}, {}, {}, {}, {},
    {}, {}, {}, {}, {}, {}, {},
    {}, {}, {}, {}, {}, {}, {},
    {}, {}, {}, {}, {}, {}, {},
    {}, {}, {}, {}, {}, {}, {},
    {}, {}, {}, {}, {}, {}, {},
    {}, {}, {}, {}, {}, {}, {},
    {}, {}, {}, {}, {}, {}, {},
    {}, {}, {}, {}, {}, {}, {},
    {}, {}, {}, {}, {}, {}, {},

  % k = 2
    {}, {}, {}, {}, {}, {}, {},
    {}, {}, {}, {}, {}, {}, {},
    {}, {}, {}, {}, {}, {}, {},
    {}, {}, {}, {}, {}, {}, {},
    {}, {}, {}, {}, {}, {}, {},
    {}, {}, {}, {}, {}, {}, {},
    {}, {}, {}, {}, {}, {}, {},
    {}, {}, {}, {}, {}, {}, {},
    {}, {}, {}, {}, {}, {}, {},
    {}, {}, {}, {}, {}, {}, {},
    {}, {}, {}, {}, {}, {}, {},
    {}, {}, {}, {}, {}, {}, {},
    {}, {}, {}, {}, {}, {}, {},

  % k = 3
    {}, {}, {}, {}, {}, {}, {},
    {}, {}, {}, {}, {}, {}, {},
    {}, {}, {}, {}, {}, {}, {},
    {}, {}, {}, {}, {}, {}, {},
    {}, {}, {}, {}, {}, {}, {},
    {}, {}, {}, {}, {}, {}, {},
    {}, {}, {}, {}, {}, {}, {},
    {}, {}, {}, {}, {}, {}, {},
    {}, {}, {}, {}, {}, {}, {},
    {}, {}, {}, {}, {}, {}, {},
    {}, {}, {}, {}, {}, {}, {},
    {}, {}, {}, {}, {}, {}, {},
    {}, {}, {}, {}, {}, {}, {},

  % k = 4
    {}, {}, {}, {}, {}, {}, {},
    {}, {}, {}, {}, {}, {}, {},
    {}, {}, {}, {}, {}, {}, {},
    {}, {}, {}, {}, {}, {}, {},
    {}, {}, {}, {}, {}, {}, {},
    {}, {}, {}, {}, {}, {}, {},
    {}, {}, {}, {}, {}, {}, {},
    {}, {}, {}, {}, {}, {}, {},
    {}, {}, {}, {}, {}, {}, {},
    {}, {}, {}, {}, {}, {}, {},
    {}, {}, {}, {}, {}, {}, {},
    {}, {}, {}, {}, {}, {}, {},
    {}, {}, {}, {}, {}, {}, {},

  % k = 5
    {}, {}, {}, {}, {}, {}, {},
    {}, {}, {}, {}, {}, {}, {},
    {}, {}, {}, {}, {}, {}, {},
    {}, {}, {}, {}, {}, {}, {},
    {}, {}, {}, {}, {}, {}, {},
    {}, {}, {}, {}, {}, {}, {},
    {}, {}, {}, {}, {}, {}, {},
    {}, {}, {}, {}, {}, {}, {},
    {}, {}, {}, {}, {}, {}, {},
    {}, {}, {}, {}, {}, {}, {},
    {}, {}, {}, {}, {}, {}, {},
    {}, {}, {}, {}, {}, {}, {},
    {}, {}, {}, {}, {}, {}, {},

  % k = 6
    {}, {}, {}, {}, {}, {}, {},
    {}, {}, {}, {}, {}, {}, {},
    {}, {}, {}, {}, {}, {}, {},
    {}, {}, {}, {}, {}, {}, {},
    {}, {}, {}, {}, {}, {}, {},
    {}, {}, {}, {}, {}, {}, {},
    {}, {}, {}, {}, {}, {}, {},
    {}, {}, {}, {}, {}, {}, {},
    {}, {}, {}, {}, {}, {}, {},
    {}, {}, {}, {}, {}, {}, {},
    {}, {}, {}, {}, {}, {}, {},
    {}, {}, {}, {}, {}, {}, {},
    {}, {}, {}, {}, {}, {}, {}
]);
